100 100 100
50
89 100 4
51 100 65
81 82 43
39 49 17
89 79 24
95 97 27
90 93 2
100 88 14
70 98 18
12 98 81
41 67 78
76 90 10
80 67 64
93 67 33
94 88 14
87 79 6
83 72 5
66 85 21
99 78 47
90 89 13
83 95 15
99 66 9
98 97 43
78 91 10
36 87 72
91 82 16
49 22 23
84 59 67
90 92 14
94 59 67
96 75 20
9 100 81
98 73 25
73 92 9
70 33 93
43 84 73
70 83 37
99 99 42
98 73 60
92 72 13
97 86 44
73 15 68
23 39 34
82 84 17
86 88 26
74 54 53
69 90 6
95 94 24
98 68 32
100 83 32
